m = 4; % number of couriers
n = 5; % number of packages

l = [5, 8, 4, 7]; % maximum carriable weight per courier
s = [3, 4, 3, 5, 3]; % weight of each package

D = % distance matrix 
	 [| 2, 3, 8, 5, 3, 7
	 | 3, 6, 6, 5, 7, 4
	 | 8, 6, 3, 4, 2, 2
	 | 5, 5, 4, 8, 5, 7
	 | 3, 7, 2, 5, 2, 7
	 | 7, 6, 6, 3, 6, 5
	 |];